p edge 100 1600
e 1 2
e 1 3
e 1 4
e 1 5
e 1 6
e 1 7
e 1 8
e 1 9
e 1 10
e 1 11
e 1 12
e 1 13
e 1 14
e 1 15
e 1 16
e 1 17
e 1 18
e 1 19
e 1 20
e 1 21
e 1 22
e 1 23
e 1 24
e 1 25
e 1 26
e 1 27
e 1 28
e 1 29
e 1 30
e 1 31
e 1 32
e 1 33
e 1 34
e 1 35
e 1 36
e 1 37
e 1 38
e 1 39
e 1 40
e 1 41
e 1 42
e 1 43
e 1 44
e 1 45
e 1 46
e 1 47
e 1 48
e 1 49
e 1 50
e 1 51
e 1 52
e 1 53
e 1 54
e 1 55
e 1 56
e 1 57
e 1 58
e 1 59
e 1 60
e 1 61
e 1 62
e 1 63
e 1 64
e 1 65
e 1 66
e 1 67
e 1 68
e 1 69
e 1 70
e 1 71
e 1 72
e 1 73
e 1 74
e 1 75
e 1 76
e 1 77
e 1 78
e 1 79
e 1 80
e 1 81
e 1 82
e 1 83
e 1 84
e 1 85
e 1 86
e 1 87
e 1 88
e 1 89
e 1 90
e 1 91
e 1 92
e 1 93
e 1 94
e 1 95
e 1 96
e 1 97
e 1 98
e 1 99
e 1 100
e 2 82
e 2 83
e 2 84
e 2 85
e 2 86
e 2 87
e 2 88
e 2 89
e 2 90
e 2 91
e 2 93
e 2 95
e 2 96
e 2 97
e 2 99
e 2 100
e 3 82
e 3 83
e 3 84
e 3 85
e 3 86
e 3 87
e 3 88
e 3 90
e 3 91
e 3 92
e 3 93
e 3 94
e 3 95
e 3 97
e 3 99
e 3 100
e 4 82
e 4 83
e 4 84
e 4 85
e 4 86
e 4 87
e 4 88
e 4 89
e 4 90
e 4 91
e 4 93
e 4 94
e 4 95
e 4 96
e 4 97
e 4 98
e 4 99
e 5 82
e 5 83
e 5 84
e 5 85
e 5 86
e 5 87
e 5 88
e 5 89
e 5 90
e 5 91
e 5 92
e 5 93
e 5 94
e 5 95
e 5 96
e 5 97
e 5 98
e 5 99
e 5 100
e 6 82
e 6 83
e 6 84
e 6 85
e 6 86
e 6 87
e 6 90
e 6 91
e 6 92
e 6 93
e 6 94
e 6 95
e 6 96
e 6 97
e 6 98
e 7 82
e 7 83
e 7 84
e 7 87
e 7 88
e 7 89
e 7 93
e 7 95
e 7 100
e 8 82
e 8 83
e 8 84
e 8 85
e 8 86
e 8 87
e 8 88
e 8 89
e 8 90
e 8 91
e 8 92
e 8 93
e 8 94
e 8 96
e 8 98
e 8 99
e 8 100
e 9 82
e 9 83
e 9 84
e 9 85
e 9 86
e 9 87
e 9 88
e 9 89
e 9 90
e 9 91
e 9 93
e 9 94
e 9 95
e 9 96
e 9 98
e 9 99
e 9 100
e 10 82
e 10 83
e 10 84
e 10 85
e 10 86
e 10 87
e 10 89
e 10 90
e 10 91
e 10 92
e 10 93
e 10 94
e 10 95
e 10 96
e 10 97
e 10 98
e 10 100
e 11 83
e 11 84
e 11 85
e 11 86
e 11 87
e 11 88
e 11 89
e 11 90
e 11 91
e 11 92
e 11 94
e 11 95
e 11 97
e 11 98
e 12 82
e 12 83
e 12 84
e 12 85
e 12 86
e 12 87
e 12 88
e 12 89
e 12 91
e 12 93
e 12 94
e 12 95
e 12 96
e 12 99
e 12 100
e 13 82
e 13 83
e 13 84
e 13 85
e 13 86
e 13 87
e 13 88
e 13 89
e 13 90
e 13 91
e 13 92
e 13 94
e 13 96
e 13 97
e 13 98
e 13 99
e 13 100
e 14 82
e 14 83
e 14 84
e 14 85
e 14 86
e 14 87
e 14 88
e 14 89
e 14 90
e 14 91
e 14 92
e 14 93
e 14 94
e 14 95
e 14 98
e 14 99
e 14 100
e 15 82
e 15 83
e 15 84
e 15 85
e 15 86
e 15 87
e 15 88
e 15 89
e 15 90
e 15 92
e 15 93
e 15 94
e 15 95
e 15 96
e 15 97
e 15 98
e 15 99
e 15 100
e 16 82
e 16 83
e 16 84
e 16 85
e 16 86
e 16 88
e 16 89
e 16 90
e 16 91
e 16 92
e 16 93
e 16 94
e 16 95
e 16 96
e 16 98
e 16 99
e 17 82
e 17 83
e 17 84
e 17 85
e 17 87
e 17 88
e 17 90
e 17 91
e 17 92
e 17 93
e 17 94
e 17 96
e 17 97
e 17 98
e 17 99
e 18 82
e 18 83
e 18 84
e 18 85
e 18 86
e 18 87
e 18 89
e 18 91
e 18 92
e 18 93
e 18 94
e 18 95
e 18 96
e 18 97
e 18 98
e 18 99
e 18 100
e 19 82
e 19 84
e 19 85
e 19 86
e 19 87
e 19 88
e 19 89
e 19 91
e 19 92
e 19 93
e 19 94
e 19 95
e 19 96
e 19 98
e 20 82
e 20 83
e 20 84
e 20 85
e 20 88
e 20 89
e 20 91
e 20 92
e 20 93
e 20 94
e 20 95
e 20 97
e 20 98
e 20 100
e 21 82
e 21 83
e 21 84
e 21 85
e 21 86
e 21 87
e 21 88
e 21 90
e 21 91
e 21 92
e 21 93
e 21 97
e 21 98
e 21 99
e 21 100
e 22 82
e 22 83
e 22 84
e 22 85
e 22 86
e 22 87
e 22 88
e 22 89
e 22 90
e 22 91
e 22 92
e 22 93
e 22 94
e 22 95
e 22 96
e 22 97
e 22 98
e 22 100
e 23 82
e 23 83
e 23 84
e 23 85
e 23 86
e 23 87
e 23 88
e 23 89
e 23 90
e 23 91
e 23 94
e 23 95
e 23 96
e 23 97
e 23 99
e 24 82
e 24 83
e 24 84
e 24 85
e 24 86
e 24 87
e 24 88
e 24 89
e 24 90
e 24 91
e 24 92
e 24 94
e 24 95
e 24 96
e 24 97
e 24 98
e 24 99
e 24 100
e 25 82
e 25 83
e 25 85
e 25 86
e 25 87
e 25 88
e 25 89
e 25 90
e 25 91
e 25 92
e 25 93
e 25 95
e 25 96
e 25 97
e 25 98
e 25 99
e 25 100
e 26 82
e 26 83
e 26 84
e 26 86
e 26 89
e 26 91
e 26 93
e 26 94
e 26 97
e 26 99
e 27 82
e 27 83
e 27 84
e 27 85
e 27 86
e 27 87
e 27 88
e 27 89
e 27 90
e 27 91
e 27 92
e 27 93
e 27 94
e 27 95
e 27 96
e 27 97
e 27 98
e 27 100
e 28 82
e 28 83
e 28 84
e 28 85
e 28 86
e 28 87
e 28 88
e 28 89
e 28 90
e 28 91
e 28 92
e 28 94
e 28 95
e 28 96
e 28 97
e 28 98
e 28 99
e 28 100
e 29 82
e 29 83
e 29 84
e 29 85
e 29 86
e 29 87
e 29 88
e 29 89
e 29 90
e 29 91
e 29 92
e 29 93
e 29 94
e 29 95
e 29 96
e 29 97
e 29 98
e 29 99
e 29 100
e 30 82
e 30 83
e 30 84
e 30 85
e 30 86
e 30 87
e 30 89
e 30 90
e 30 91
e 30 92
e 30 93
e 30 94
e 30 96
e 30 98
e 30 99
e 30 100
e 31 82
e 31 83
e 31 84
e 31 85
e 31 86
e 31 87
e 31 88
e 31 89
e 31 90
e 31 91
e 31 92
e 31 93
e 31 94
e 31 95
e 31 96
e 31 97
e 31 98
e 31 99
e 31 100
e 32 82
e 32 83
e 32 84
e 32 85
e 32 86
e 32 87
e 32 88
e 32 89
e 32 90
e 32 91
e 32 92
e 32 93
e 32 94
e 32 95
e 32 96
e 32 97
e 32 99
e 32 100
e 33 82
e 33 83
e 33 84
e 33 85
e 33 86
e 33 87
e 33 88
e 33 89
e 33 90
e 33 91
e 33 92
e 33 93
e 33 94
e 33 95
e 33 96
e 33 97
e 33 98
e 33 99
e 33 100
e 34 82
e 34 83
e 34 84
e 34 85
e 34 86
e 34 87
e 34 88
e 34 89
e 34 90
e 34 91
e 34 92
e 34 93
e 34 94
e 34 95
e 34 96
e 34 98
e 34 99
e 35 82
e 35 83
e 35 84
e 35 85
e 35 86
e 35 87
e 35 88
e 35 89
e 35 90
e 35 92
e 35 93
e 35 94
e 35 95
e 35 97
e 35 100
e 36 82
e 36 84
e 36 85
e 36 86
e 36 87
e 36 88
e 36 89
e 36 90
e 36 91
e 36 92
e 36 93
e 36 94
e 36 95
e 36 96
e 36 97
e 36 100
e 37 82
e 37 83
e 37 84
e 37 85
e 37 86
e 37 88
e 37 89
e 37 90
e 37 91
e 37 92
e 37 93
e 37 94
e 37 95
e 37 96
e 37 97
e 37 98
e 37 99
e 37 100
e 38 82
e 38 83
e 38 84
e 38 85
e 38 86
e 38 87
e 38 88
e 38 89
e 38 91
e 38 92
e 38 93
e 38 94
e 38 97
e 38 98
e 38 99
e 38 100
e 39 82
e 39 83
e 39 84
e 39 85
e 39 86
e 39 87
e 39 88
e 39 89
e 39 90
e 39 91
e 39 92
e 39 94
e 39 95
e 39 96
e 39 97
e 39 98
e 39 99
e 39 100
e 40 82
e 40 83
e 40 84
e 40 85
e 40 86
e 40 87
e 40 88
e 40 89
e 40 90
e 40 91
e 40 92
e 40 93
e 40 94
e 40 95
e 40 96
e 40 97
e 40 98
e 40 100
e 41 82
e 41 83
e 41 84
e 41 85
e 41 86
e 41 87
e 41 88
e 41 89
e 41 92
e 41 94
e 41 95
e 41 96
e 41 98
e 41 99
e 41 100
e 42 82
e 42 83
e 42 84
e 42 85
e 42 86
e 42 87
e 42 88
e 42 89
e 42 90
e 42 91
e 42 92
e 42 94
e 42 96
e 42 97
e 42 98
e 42 99
e 43 82
e 43 83
e 43 84
e 43 85
e 43 86
e 43 87
e 43 88
e 43 89
e 43 90
e 43 91
e 43 92
e 43 93
e 43 94
e 43 95
e 43 96
e 43 97
e 43 98
e 43 99
e 43 100
e 44 82
e 44 83
e 44 84
e 44 85
e 44 86
e 44 87
e 44 88
e 44 89
e 44 90
e 44 91
e 44 92
e 44 93
e 44 94
e 44 96
e 44 97
e 44 98
e 44 99
e 44 100
e 45 82
e 45 83
e 45 84
e 45 85
e 45 86
e 45 87
e 45 88
e 45 89
e 45 90
e 45 91
e 45 92
e 45 93
e 45 94
e 45 95
e 45 96
e 45 97
e 45 98
e 45 99
e 46 82
e 46 83
e 46 86
e 46 87
e 46 88
e 46 89
e 46 90
e 46 91
e 46 92
e 46 93
e 46 94
e 46 95
e 46 96
e 46 97
e 46 98
e 46 99
e 47 82
e 47 83
e 47 84
e 47 85
e 47 86
e 47 87
e 47 88
e 47 89
e 47 90
e 47 91
e 47 92
e 47 94
e 47 95
e 47 96
e 47 97
e 47 98
e 47 99
e 48 82
e 48 83
e 48 84
e 48 85
e 48 86
e 48 87
e 48 88
e 48 89
e 48 90
e 48 91
e 48 92
e 48 93
e 48 94
e 48 95
e 48 96
e 48 97
e 48 98
e 48 99
e 48 100
e 49 82
e 49 83
e 49 84
e 49 85
e 49 86
e 49 87
e 49 88
e 49 89
e 49 90
e 49 91
e 49 92
e 49 93
e 49 94
e 49 95
e 49 96
e 49 97
e 49 99
e 50 82
e 50 83
e 50 84
e 50 85
e 50 86
e 50 87
e 50 88
e 50 90
e 50 91
e 50 92
e 50 93
e 50 95
e 50 96
e 50 97
e 50 98
e 50 99
e 50 100
e 51 82
e 51 83
e 51 84
e 51 85
e 51 86
e 51 87
e 51 88
e 51 89
e 51 90
e 51 91
e 51 92
e 51 93
e 51 94
e 51 95
e 51 96
e 51 98
e 51 99
e 51 100
e 52 82
e 52 83
e 52 84
e 52 85
e 52 86
e 52 87
e 52 88
e 52 89
e 52 90
e 52 91
e 52 92
e 52 93
e 52 94
e 52 95
e 52 96
e 52 97
e 52 98
e 52 100
e 53 82
e 53 83
e 53 84
e 53 85
e 53 86
e 53 87
e 53 89
e 53 90
e 53 91
e 53 92
e 53 93
e 53 94
e 53 95
e 53 96
e 53 97
e 53 99
e 53 100
e 54 82
e 54 83
e 54 84
e 54 86
e 54 87
e 54 88
e 54 89
e 54 90
e 54 92
e 54 93
e 54 94
e 54 95
e 54 96
e 54 97
e 54 98
e 54 100
e 55 82
e 55 83
e 55 84
e 55 85
e 55 86
e 55 87
e 55 89
e 55 90
e 55 93
e 55 94
e 55 95
e 55 96
e 55 97
e 55 98
e 55 99
e 55 100
e 56 82
e 56 83
e 56 84
e 56 85
e 56 86
e 56 88
e 56 90
e 56 91
e 56 92
e 56 93
e 56 94
e 56 95
e 56 96
e 56 97
e 56 98
e 56 99
e 56 100
e 57 82
e 57 83
e 57 84
e 57 85
e 57 86
e 57 87
e 57 88
e 57 89
e 57 90
e 57 91
e 57 93
e 57 94
e 57 95
e 57 96
e 57 97
e 57 99
e 57 100
e 58 82
e 58 83
e 58 84
e 58 85
e 58 86
e 58 87
e 58 88
e 58 89
e 58 90
e 58 91
e 58 92
e 58 93
e 58 97
e 58 100
e 59 82
e 59 83
e 59 84
e 59 85
e 59 86
e 59 87
e 59 88
e 59 89
e 59 90
e 59 91
e 59 92
e 59 93
e 59 95
e 59 96
e 59 97
e 59 98
e 59 99
e 59 100
e 60 82
e 60 83
e 60 84
e 60 85
e 60 86
e 60 87
e 60 88
e 60 89
e 60 90
e 60 91
e 60 92
e 60 94
e 60 95
e 60 96
e 60 97
e 60 99
e 60 100
e 61 82
e 61 83
e 61 84
e 61 85
e 61 86
e 61 87
e 61 88
e 61 89
e 61 90
e 61 91
e 61 92
e 61 94
e 61 95
e 61 96
e 61 97
e 61 98
e 61 99
e 61 100
e 62 82
e 62 83
e 62 84
e 62 85
e 62 86
e 62 87
e 62 88
e 62 90
e 62 91
e 62 92
e 62 93
e 62 94
e 62 95
e 62 97
e 62 98
e 62 100
e 63 82
e 63 83
e 63 84
e 63 85
e 63 86
e 63 87
e 63 88
e 63 89
e 63 90
e 63 91
e 63 92
e 63 93
e 63 94
e 63 95
e 63 96
e 63 97
e 63 99
e 63 100
e 64 82
e 64 83
e 64 84
e 64 85
e 64 86
e 64 87
e 64 88
e 64 89
e 64 90
e 64 91
e 64 93
e 64 94
e 64 95
e 64 96
e 64 97
e 64 98
e 64 99
e 65 82
e 65 83
e 65 84
e 65 85
e 65 86
e 65 88
e 65 89
e 65 90
e 65 91
e 65 92
e 65 93
e 65 94
e 65 96
e 65 98
e 65 99
e 66 82
e 66 83
e 66 84
e 66 85
e 66 86
e 66 87
e 66 88
e 66 89
e 66 90
e 66 91
e 66 92
e 66 93
e 66 95
e 66 96
e 66 97
e 66 98
e 67 82
e 67 83
e 67 84
e 67 85
e 67 86
e 67 87
e 67 88
e 67 89
e 67 90
e 67 91
e 67 92
e 67 93
e 67 94
e 67 96
e 67 98
e 67 99
e 67 100
e 68 82
e 68 83
e 68 84
e 68 85
e 68 87
e 68 88
e 68 89
e 68 90
e 68 92
e 68 93
e 68 95
e 68 97
e 68 99
e 69 82
e 69 83
e 69 84
e 69 85
e 69 86
e 69 87
e 69 88
e 69 89
e 69 90
e 69 91
e 69 92
e 69 93
e 69 94
e 69 95
e 69 96
e 69 98
e 69 99
e 69 100
e 70 82
e 70 83
e 70 84
e 70 85
e 70 86
e 70 87
e 70 88
e 70 89
e 70 91
e 70 92
e 70 93
e 70 94
e 70 95
e 70 96
e 70 97
e 70 98
e 70 99
e 70 100
e 71 82
e 71 83
e 71 84
e 71 85
e 71 86
e 71 87
e 71 88
e 71 89
e 71 90
e 71 91
e 71 92
e 71 93
e 71 94
e 71 95
e 71 96
e 71 97
e 71 98
e 71 99
e 71 100
e 72 82
e 72 83
e 72 84
e 72 85
e 72 86
e 72 87
e 72 88
e 72 89
e 72 90
e 72 92
e 72 93
e 72 95
e 72 96
e 72 97
e 72 99
e 72 100
e 73 82
e 73 83
e 73 84
e 73 85
e 73 86
e 73 87
e 73 88
e 73 89
e 73 90
e 73 92
e 73 93
e 73 95
e 73 96
e 73 97
e 73 98
e 73 99
e 73 100
e 74 82
e 74 83
e 74 84
e 74 85
e 74 86
e 74 87
e 74 88
e 74 90
e 74 91
e 74 92
e 74 93
e 74 94
e 74 95
e 74 96
e 74 97
e 74 98
e 74 99
e 74 100
e 75 82
e 75 83
e 75 84
e 75 85
e 75 86
e 75 87
e 75 88
e 75 89
e 75 90
e 75 92
e 75 93
e 75 94
e 75 95
e 75 97
e 75 98
e 75 100
e 76 82
e 76 83
e 76 84
e 76 85
e 76 87
e 76 88
e 76 89
e 76 90
e 76 91
e 76 94
e 76 96
e 76 98
e 76 99
e 76 100
e 77 82
e 77 83
e 77 84
e 77 85
e 77 86
e 77 87
e 77 88
e 77 89
e 77 90
e 77 91
e 77 92
e 77 93
e 77 94
e 77 95
e 77 96
e 77 98
e 78 82
e 78 83
e 78 84
e 78 85
e 78 86
e 78 87
e 78 88
e 78 89
e 78 90
e 78 91
e 78 92
e 78 93
e 78 97
e 78 98
e 78 99
e 78 100
e 79 82
e 79 83
e 79 85
e 79 86
e 79 87
e 79 88
e 79 89
e 79 90
e 79 91
e 79 92
e 79 93
e 79 94
e 79 95
e 79 96
e 79 97
e 79 98
e 79 99
e 79 100
e 80 82
e 80 83
e 80 84
e 80 85
e 80 86
e 80 87
e 80 88
e 80 89
e 80 90
e 80 91
e 80 92
e 80 93
e 80 94
e 80 95
e 80 96
e 80 97
e 80 98
e 80 99
e 80 100
e 81 82
e 81 83
e 81 84
e 81 85
e 81 86
e 81 87
e 81 88
e 81 89
e 81 90
e 81 91
e 81 92
e 81 93
e 81 95
e 81 97
e 81 98
e 81 99
e 81 100
e 82 83
e 82 84
e 82 85
e 82 86
e 82 87
e 82 88
e 82 89
e 82 90
e 82 91
e 82 92
e 82 93
e 82 94
e 82 95
e 82 96
e 82 97
e 82 98
e 82 99
e 82 100
e 83 84
e 83 85
e 83 86
e 83 87
e 83 88
e 83 89
e 83 90
e 83 91
e 83 92
e 83 93
e 83 94
e 83 95
e 83 96
e 83 97
e 83 98
e 83 99
e 83 100
e 84 85
e 84 86
e 84 87
e 84 88
e 84 89
e 84 90
e 84 91
e 84 92
e 84 93
e 84 94
e 84 95
e 84 96
e 84 97
e 84 98
e 84 99
e 84 100
e 85 86
e 85 87
e 85 88
e 85 89
e 85 90
e 85 91
e 85 92
e 85 93
e 85 94
e 85 95
e 85 96
e 85 97
e 85 98
e 85 99
e 85 100
e 86 87
e 86 88
e 86 89
e 86 90
e 86 91
e 86 92
e 86 93
e 86 94
e 86 95
e 86 96
e 86 97
e 86 98
e 86 99
e 86 100
e 87 88
e 87 89
e 87 90
e 87 91
e 87 92
e 87 93
e 87 94
e 87 95
e 87 96
e 87 97
e 87 98
e 87 99
e 87 100
e 88 89
e 88 90
e 88 91
e 88 92
e 88 93
e 88 94
e 88 95
e 88 96
e 88 97
e 88 98
e 88 99
e 88 100
e 89 90
e 89 91
e 89 92
e 89 93
e 89 94
e 89 95
e 89 96
e 89 97
e 89 98
e 89 99
e 89 100
e 90 91
e 90 92
e 90 93
e 90 94
e 90 95
e 90 96
e 90 97
e 90 98
e 90 99
e 90 100
e 91 92
e 91 93
e 91 94
e 91 95
e 91 96
e 91 97
e 91 98
e 91 99
e 91 100
e 92 93
e 92 94
e 92 95
e 92 96
e 92 97
e 92 98
e 92 99
e 92 100
e 93 94
e 93 95
e 93 96
e 93 97
e 93 98
e 93 99
e 93 100
e 94 95
e 94 96
e 94 97
e 94 98
e 94 99
e 94 100
e 95 96
e 95 97
e 95 98
e 95 99
e 95 100
e 96 97
e 96 98
e 96 99
e 96 100
e 97 98
e 97 99
e 97 100
e 98 99
e 98 100
e 99 100
